
Gurobi 12.0.2 (win64) logging started Mon Nov 17 17:34:33 2025

Set parameter LogFile to value "C:\Users\utente\Desktop\TESI\Job_Shop_Scheduling_Benchmark_Environments_and_Instances\simulations\logs\experiment_logs\gurobi_exp3.log"
Set parameter OutputFlag to value 1
Set parameter TimeLimit to value 2000
Gurobi Optimizer version 12.0.2 build v12.0.2rc0 (win64 - Windows 10.0 (19045.2))

CPU model: Intel(R) Core(TM) i7-7500U CPU @ 2.70GHz, instruction set [SSE2|AVX|AVX2]
Thread count: 2 physical cores, 4 logical processors, using up to 4 threads

Non-default parameters:
TimeLimit  2000
NonConvex  2

Optimize a model with 116406 rows, 65081 columns and 546759 nonzeros
Model fingerprint: 0x0a9d9a66
Model has 20 quadratic constraints
Variable types: 0 continuous, 65081 integer (64560 binary)
Coefficient statistics:
  Matrix range     [1e+00, 7e+03]
  QMatrix range    [1e+00, 1e+00]
  QLMatrix range   [1e+00, 1e+00]
  Objective range  [1e+00, 1e+00]
  Bounds range     [1e+00, 1e+00]
  RHS range        [1e+00, 2e+04]

---------------------------------------------------------------------------
Multi-objectives: starting optimization with 2 objectives... 
---------------------------------------------------------------------------

Multi-objectives: applying initial presolve...
---------------------------------------------------------------------------

Presolve removed 26159 rows and 3435 columns
Presolve time: 3.85s
Presolved: 90247 rows, 61646 columns, 433817 nonzeros

Multi-objectives: optimize objective 1 () ...
---------------------------------------------------------------------------

Presolve removed 3504 rows and 29409 columns
Presolve time: 1.57s
Presolved: 86743 rows, 32237 columns, 424876 nonzeros
Presolved model has 20 quadratic constraint(s)
Variable types: 0 continuous, 32237 integer (31970 binary)

Deterministic concurrent LP optimizer: primal and dual simplex
Showing primal log only...

Root relaxation presolved: 29439 rows, 10720 columns, 145140 nonzeros


Root simplex log...

Iteration    Objective       Primal Inf.    Dual Inf.      Time
       0    0.0000000e+00   2.009375e+02   1.805474e+09      6s
    1803    0.0000000e+00   0.000000e+00   0.000000e+00      7s
    1803    0.0000000e+00   0.000000e+00   0.000000e+00      7s
Concurrent spin time: 0.09s

Solved with dual simplex

Root relaxation: objective 0.000000e+00, 967 iterations, 0.94 seconds (0.59 work units)
Total elapsed time = 10.84s (DegenMoves)

    Nodes    |    Current Node    |     Objective Bounds      |     Work
 Expl Unexpl |  Obj  Depth IntInf | Incumbent    BestBd   Gap | It/Node Time

     0     0    0.00000    0  100          -    0.00000      -     -   12s
     0     0    0.00000    0  444          -    0.00000      -     -   15s
     0     0    0.00000    0  413          -    0.00000      -     -   15s
     0     0    0.00000    0  248          -    0.00000      -     -   22s
     0     0    0.00000    0  402          -    0.00000      -     -   23s
     0     0    0.00000    0  202          -    0.00000      -     -   32s
     0     0    0.00000    0  293          -    0.00000      -     -   33s
     0     0    0.00000    0  174          -    0.00000      -     -   41s
     0     0    0.00000    0  193          -    0.00000      -     -   42s
     0     0    0.00000    0  144          -    0.00000      -     -   47s
     0     0    0.00000    0  364          -    0.00000      -     -   48s
     0     0    0.00000    0  210          -    0.00000      -     -   52s
     0     0    0.00000    0  143          -    0.00000      -     -   55s
     0     0    0.00000    0  156          -    0.00000      -     -   56s
     0     0    0.00000    0  170          -    0.00000      -     -   59s
     0     0    0.00000    0  216          -    0.00000      -     -   61s
     0     0    0.00000    0  220          -    0.00000      -     -   63s
     0     0    0.00000    0  242          -    0.00000      -     -   68s
     0     0    0.00000    0  252          -    0.00000      -     -   73s
     0     0    0.00000    0  224          -    0.00000      -     -   77s
     0     0    0.00000    0  229          -    0.00000      -     -   83s
     0     0    0.00000    0  188          -    0.00000      -     -   89s
     0     0    0.00000    0  267          -    0.00000      -     -   92s
     0     0    0.00000    0  218          -    0.00000      -     -   96s
     0     0    0.00000    0  192          -    0.00000      -     -   98s
     0     0    0.00000    0  215          -    0.00000      -     -  101s
     0     0    0.00000    0  229          -    0.00000      -     -  103s
     0     0    0.00000    0  172          -    0.00000      -     -  106s
     0     0    0.00000    0  242          -    0.00000      -     -  109s
     0     0    0.00000    0  176          -    0.00000      -     -  112s
     0     0    0.00000    0  207          -    0.00000      -     -  118s
     0     0    0.00000    0  230          -    0.00000      -     -  121s
     0     0    0.00000    0  118          -    0.00000      -     -  125s
     0     0    0.00000    0  176          -    0.00000      -     -  129s
     0     0    0.00000    0  225          -    0.00000      -     -  132s
     0     0    0.00000    0  218          -    0.00000      -     -  134s
     0     0    0.00000    0  216          -    0.00000      -     -  135s
     0     0    0.00000    0  186          -    0.00000      -     -  137s
     0     0    0.00000    0  252          -    0.00000      -     -  140s
     0     0    0.00000    0  201          -    0.00000      -     -  145s
     0     0    0.00000    0  174          -    0.00000      -     -  151s
     0     0    0.00000    0  210          -    0.00000      -     -  153s
     0     0    0.00000    0  155          -    0.00000      -     -  156s
     0     0    0.00000    0  226          -    0.00000      -     -  158s
     0     0    0.00000    0  209          -    0.00000      -     -  162s
     0     0    0.00000    0  231          -    0.00000      -     -  165s
     0     0    0.00000    0  268          -    0.00000      -     -  167s
     0     0    0.00000    0  322          -    0.00000      -     -  169s
     0     0    0.00000    0  199          -    0.00000      -     -  172s
     0     0    0.00000    0  160          -    0.00000      -     -  177s
     0     0    0.00000    0  164          -    0.00000      -     -  183s
     0     0    0.00000    0  301          -    0.00000      -     -  186s
     0     0    0.00000    0  208          -    0.00000      -     -  189s
     0     0    0.00000    0  132          -    0.00000      -     -  194s
     0     0    0.00000    0  224          -    0.00000      -     -  197s
     0     0    0.00000    0  141          -    0.00000      -     -  201s
     0     0    0.00000    0  199          -    0.00000      -     -  204s
     0     0    0.00000    0  155          -    0.00000      -     -  207s
     0     0    0.00000    0  260          -    0.00000      -     -  211s
     0     0    0.00000    0  192          -    0.00000      -     -  214s
     0     0    0.00000    0  149          -    0.00000      -     -  217s
     0     2    0.00000    0  149          -    0.00000      -     -  284s
     1     4    0.00000    1  259          -    0.00000      -  1216  285s
    20    25    0.00000    9  361          -    0.00000      -   172  292s
    24    29    0.00000   10  217          -    0.00000      -   692  297s
    28    55    0.00000   11  242          -    0.00000      -   730  308s
    54   126    0.00000   20  182          -    0.00000      -   745  324s
   125   399    0.00000   39  329          -    0.00000      -   476  354s
   401   642    0.00000   80  226          -    0.00000      -   264  368s
   679   736    0.00000  144  433          -    0.00000      -   174  381s
   813   882    0.00000   11  195          -    0.00000      -   166  393s
  1063   883 3982.00000  277  149          -    0.00000      -   143  406s
  1065   884    0.00000  181  280          -    0.00000      -   142  420s
  1066   885    0.00000  142  234          -    0.00000      -   142  426s
  1067   886    0.00000  195  497          -    0.00000      -   142  430s
  1068   886   55.00000  191  237          -    0.00000      -   142  436s
  1070   888  122.00000  217  192          -    0.00000      -   142  447s
  1071   888    0.00000  112  435          -    0.00000      -   141  451s
  1072   889    0.00000   39  219          -    0.00000      -   141  457s
  1074   890    0.00000  187  160          -    0.00000      -   141  466s
  1076   892  104.00000  224  173          -    0.00000      -   141  480s
  1078   893    0.00000   25  206          -    0.00000      -   141  493s
  1079   894    0.00000   66  233          -    0.00000      -   140  495s
  1080   894    0.00000   66  183          -    0.00000      -   140  501s
  1082   896    0.00000  178  208          -    0.00000      -   140  510s
  1084   897    0.00000  166  262          -    0.00000      -   140  521s
  1085   898    0.00000  139  262          -    0.00000      -   140  526s
  1086   898    0.00000  134  262          -    0.00000      -   140  569s
  1087   902    0.00000   14  264          -    0.00000      -   198  574s
  1089   903    0.00000   15  265          -    0.00000      -   199  575s
  1103   937    0.00000   18  272          -    0.00000      -   197  583s
  1129   980    0.00000   24  326          -    0.00000      -   194  594s
  1181  1069    0.00000   37  320          -    0.00000      -   189  615s
  1287  1151    0.00000   63  287          -    0.00000      -   179  641s
  1407  1243    0.00000   96  292          -    0.00000      -   170  666s
  1539  1332    4.00000  132  320          -    0.00000      -   164  686s
  1672  1428   24.00000  170  326          -    0.00000      -   156  705s
  1812  1480  862.00000  211  329          -    0.00000      -   149  719s

Cutting planes:
  Learned: 2
  MIR: 2
  Flow cover: 34
  Zero half: 1

Explored 1912 nodes (493542 simplex iterations) in 720.01 seconds (748.12 work units)
Thread count was 4 (of 4 available processors)

Solution count 0

Solve interrupted
Best objective -, best bound 0.000000000000e+00, gap -

---------------------------------------------------------------------------
Multi-objectives: stopped in 720.06 seconds (748.12 work units)
Solve interrupted


User-callback calls 92735, time in user-callback 0.49 sec
